
  32    4
  10   10   10   10

   0   0   0   0   0   2 2 3 
   9  10  10  10  10  11 14 13 12 11 10 9 8 7 6 5 4 
   4  10  10  10  10   6 14 13 9 8 7 6 
   2  10  10  10  10   4 18 17 16 15 
   7  10  10  10  10   4 18 17 16 15 
   9  10  10  10  10   3 17 16 15 
   3  10  10  10  10   3 18 17 15 
   4  10  10  10  10   3 17 16 15 
   6  10  10  10  10   3 17 16 15 
   2  10  10  10  10   3 18 16 15 
   2  10  10  10  10   2 17 16 
   3  10  10  10  10   2 17 15 
   1  10  10  10  10   2 20 17 
   6  10  10  10  10   1 15 
   2  10  10  10  10   4 22 21 20 19 
   9  10  10  10  10   4 22 21 20 19 
   5  10  10  10  10   3 22 21 19 
   6  10  10  10  10   3 21 20 19 
   2  10  10  10  10   3 25 24 23 
   9  10  10  10  10   2 25 23 
   5  10  10  10  10   3 31 30 24 
   8  10  10  10  10   2 30 23 
   2  10  10  10  10   5 31 29 28 27 26 
   3  10  10  10  10   4 29 28 27 26 
  10  10  10  10  10   3 30 27 26 
   4  10  10  10  10   1 32
   6  10  10  10  10   1 32
   1  10  10  10  10   1 32
   4  10  10  10  10   1 32
   9  10  10  10  10   1 32
   9  10  10  10  10   1 32
   0   0   0   0   0   0 
